(set-logic ALL)
(declare-fun var0 () String)
(assert (str.in_re var0 (re.++ (re.* (re.union (re.+ (re.* (re.+ (re.+ (re.+ (re.union (re.union (re.* (re.+ (re.+ (str.to_re "000")))) (re.* (re.* (re.+ (str.to_re "11"))))) (re.union (re.union (re.* (re.* (str.to_re "2"))) (re.* (re.union (str.to_re "333") (str.to_re "444")))) (re.union (re.union (re.union (str.to_re "555") (str.to_re "6")) (re.union (str.to_re "777") (str.to_re "88"))) (re.union (re.union (str.to_re "9") (str.to_re "aaa")) (re.union (str.to_re "bbb") (str.to_re "ccc"))))))))))) (re.+ (re.* (re.union (re.union (re.union (re.union (re.+ (re.union (re.+ (re.union (str.to_re "d") (str.to_re "e"))) (re.+ (re.* (str.to_re "f"))))) (re.+ (re.+ (re.* (re.* (str.to_re "ggg")))))) (re.union (re.+ (re.union (re.union (re.* (str.to_re "h")) (re.* (str.to_re "iii"))) (re.union (re.* (str.to_re "jjj")) (re.* (str.to_re "kk"))))) (re.+ (re.+ (re.+ (re.* (str.to_re "ll"))))))) (re.union (re.union (re.+ (re.union (re.* (re.* (str.to_re "mm"))) (re.* (re.* (str.to_re "n"))))) (re.+ (re.union (re.* (re.* (str.to_re "o"))) (re.* (re.* (str.to_re "pp")))))) (re.union (re.+ (re.* (re.+ (re.* (str.to_re "qq"))))) (re.+ (re.+ (re.* (re.+ (str.to_re "rrr")))))))) (re.union (re.+ (re.* (re.+ (re.* (re.* (re.union (str.to_re "sss") (str.to_re "ttt"))))))) (re.+ (re.* (re.+ (re.* (re.union (re.+ (str.to_re "uu")) (re.+ (str.to_re "vvv"))))))))))))) (re.+ (re.+ (re.* (re.+ (re.union (re.union (re.union (re.* (re.+ (re.+ (re.* (re.+ (str.to_re "ww")))))) (re.* (re.union (re.+ (re.union (re.union (str.to_re "xx") (str.to_re "yyy")) (re.union (str.to_re "zzz") (str.to_re "A")))) (re.+ (re.+ (re.* (str.to_re "BBB"))))))) (re.union (re.* (re.+ (re.+ (re.+ (re.* (str.to_re "CCC")))))) (re.* (re.* (re.+ (re.* (re.* (str.to_re "DD")))))))) (re.union (re.union (re.+ (re.* (re.* (re.* (re.* (str.to_re "EE")))))) (re.+ (re.* (re.union (re.* (re.+ (str.to_re "F"))) (re.* (re.union (str.to_re "GGG") (str.to_re "H"))))))) (re.union (re.* (re.+ (re.union (re.union (re.* (str.to_re "III")) (re.* (str.to_re "JJ"))) (re.union (re.union (str.to_re "KK") (str.to_re "LLL")) (re.union (str.to_re "M") (str.to_re "NNN")))))) (re.* (re.+ (re.union (re.+ (re.+ (str.to_re "O"))) (re.+ (re.+ (str.to_re "PPP"))))))))))))))))
(assert (<= 15 (str.len var0)))
(check-sat)